\ This file has been generated by DOcplex
\ ENCODING=ISO-8859-1
\Problem name: BayesianPersuasionSolver

Maximize
 obj: 0.700000000000 z_1_(1,_2,_m1) + 0.700000000000 z_1_(1,_m1,_2)
      + 0.700000000000 z_1_(2,_1,_m1) + 0.700000000000 z_1_(2,_m1,_1)
      + 0.700000000000 z_1_(m1,_1,_2) + 0.700000000000 z_1_(m1,_2,_1)
      + 0.300000000000 z_2_(1,_2,_m1) + 0.300000000000 z_2_(1,_m1,_2)
      + 0.300000000000 z_2_(2,_1,_m1) + 0.300000000000 z_2_(2,_m1,_1)
      + 0.300000000000 z_2_(m1,_1,_2) + 0.300000000000 z_2_(m1,_2,_1)
Subject To
 c1: z_1_(1,_2,_m1) - 2 w_1_(1,_2,_m1) + 1000 h_1_0 <= 1000
 c2: z_2_(1,_2,_m1) - 2 w_2_(1,_2,_m1) + 1000 h_2_0 <= 1000
 c3: z_1_(1,_m1,_2) - 2 w_1_(1,_m1,_2) + 1000 h_1_0 <= 1000
 c4: z_2_(1,_m1,_2) - 2 w_2_(1,_m1,_2) + 1000 h_2_0 <= 1000
 c5: z_1_(2,_1,_m1) - 2 w_1_(2,_1,_m1) + 1000 h_1_0 <= 1000
 c6: z_2_(2,_1,_m1) - 2 w_2_(2,_1,_m1) + 1000 h_2_0 <= 1000
 c7: z_1_(2,_m1,_1) - 3 w_1_(2,_m1,_1) + 1000 h_1_0 <= 1000
 c8: z_2_(2,_m1,_1) - 3 w_2_(2,_m1,_1) + 1000 h_2_0 <= 1000
 c9: z_1_(m1,_1,_2) + 2 w_1_(m1,_1,_2) + 1000 h_1_0 <= 1000
 c10: z_2_(m1,_1,_2) + 2 w_2_(m1,_1,_2) + 1000 h_2_0 <= 1000
 c11: z_1_(m1,_2,_1) + w_1_(m1,_2,_1) + 1000 h_1_0 <= 1000
 c12: z_2_(m1,_2,_1) + w_2_(m1,_2,_1) + 1000 h_2_0 <= 1000
 c13: z_1_(1,_2,_m1) - 2 w_1_(1,_2,_m1) + 1000 h_1_1 <= 1000
 c14: z_2_(1,_2,_m1) - 2 w_2_(1,_2,_m1) + 1000 h_2_1 <= 1000
 c15: z_1_(1,_m1,_2) + w_1_(1,_m1,_2) + 1000 h_1_1 <= 1000
 c16: z_2_(1,_m1,_2) + w_2_(1,_m1,_2) + 1000 h_2_1 <= 1000
 c17: z_1_(2,_1,_m1) - 2 w_1_(2,_1,_m1) + 1000 h_1_1 <= 1000
 c18: z_2_(2,_1,_m1) - 2 w_2_(2,_1,_m1) + 1000 h_2_1 <= 1000
 c19: z_1_(2,_m1,_1) + 1000 h_1_1 <= 1000
 c20: z_2_(2,_m1,_1) + 1000 h_2_1 <= 1000
 c21: z_1_(m1,_1,_2) - 2 w_1_(m1,_1,_2) + 1000 h_1_1 <= 1000
 c22: z_2_(m1,_1,_2) - 2 w_2_(m1,_1,_2) + 1000 h_2_1 <= 1000
 c23: z_1_(m1,_2,_1) - 3 w_1_(m1,_2,_1) + 1000 h_1_1 <= 1000
 c24: z_2_(m1,_2,_1) - 3 w_2_(m1,_2,_1) + 1000 h_2_1 <= 1000
 c25: z_1_(1,_2,_m1) + 2 w_1_(1,_2,_m1) + 1000 h_1_2 <= 1000
 c26: z_2_(1,_2,_m1) + 2 w_2_(1,_2,_m1) + 1000 h_2_2 <= 1000
 c27: z_1_(1,_m1,_2) - 2 w_1_(1,_m1,_2) + 1000 h_1_2 <= 1000
 c28: z_2_(1,_m1,_2) - 2 w_2_(1,_m1,_2) + 1000 h_2_2 <= 1000
 c29: z_1_(2,_1,_m1) + 2 w_1_(2,_1,_m1) + 1000 h_1_2 <= 1000
 c30: z_2_(2,_1,_m1) + 2 w_2_(2,_1,_m1) + 1000 h_2_2 <= 1000
 c31: z_1_(2,_m1,_1) - 3 w_1_(2,_m1,_1) + 1000 h_1_2 <= 1000
 c32: z_2_(2,_m1,_1) - 3 w_2_(2,_m1,_1) + 1000 h_2_2 <= 1000
 c33: z_1_(m1,_1,_2) - 2 w_1_(m1,_1,_2) + 1000 h_1_2 <= 1000
 c34: z_2_(m1,_1,_2) - 2 w_2_(m1,_1,_2) + 1000 h_2_2 <= 1000
 c35: z_1_(m1,_2,_1) - 3 w_1_(m1,_2,_1) + 1000 h_1_2 <= 1000
 c36: z_2_(m1,_2,_1) - 3 w_2_(m1,_2,_1) + 1000 h_2_2 <= 1000
 c37: 0.700000000000 y_1_(1,_2,_m1)_1_0 + 0.700000000000 y_1_(1,_m1,_2)_1_0
      + 0.300000000000 y_2_(1,_2,_m1)_1_0 + 0.300000000000 y_2_(1,_m1,_2)_1_0
      - 0.700000000000 y_1_(1,_2,_m1)_1_1 - 0.700000000000 y_1_(1,_m1,_2)_1_1
      - 0.300000000000 y_2_(1,_2,_m1)_1_1 - 0.300000000000 y_2_(1,_m1,_2)_1_1
       >= 0
 c38: 0.700000000000 y_1_(2,_1,_m1)_2_0 + 0.700000000000 y_1_(2,_m1,_1)_2_0
      + 0.300000000000 y_2_(2,_1,_m1)_2_0 + 0.300000000000 y_2_(2,_m1,_1)_2_0
      - 0.700000000000 y_1_(2,_1,_m1)_2_1 - 0.700000000000 y_1_(2,_m1,_1)_2_1
      - 0.300000000000 y_2_(2,_1,_m1)_2_1 - 0.300000000000 y_2_(2,_m1,_1)_2_1
       >= 0
 c39: 0.700000000000 y_1_(1,_2,_m1)_1_0 + 0.700000000000 y_1_(1,_m1,_2)_1_0
      + 0.300000000000 y_2_(1,_2,_m1)_1_0 + 0.300000000000 y_2_(1,_m1,_2)_1_0
      - 0.700000000000 y_1_(1,_2,_m1)_1_2 - 0.700000000000 y_1_(1,_m1,_2)_1_2
      - 0.300000000000 y_2_(1,_2,_m1)_1_2 - 0.300000000000 y_2_(1,_m1,_2)_1_2
       >= 0
 c40: 0.700000000000 y_1_(2,_1,_m1)_2_0 + 0.700000000000 y_1_(2,_m1,_1)_2_0
      + 0.300000000000 y_2_(2,_1,_m1)_2_0 + 0.300000000000 y_2_(2,_m1,_1)_2_0
      - 0.700000000000 y_1_(2,_1,_m1)_2_2 - 0.700000000000 y_1_(2,_m1,_1)_2_2
      - 0.300000000000 y_2_(2,_1,_m1)_2_2 - 0.300000000000 y_2_(2,_m1,_1)_2_2
       >= 0
 c41: 0.700000000000 y_1_(2,_1,_m1)_1_1 + 0.700000000000 y_1_(m1,_1,_2)_1_1
      + 0.300000000000 y_2_(2,_1,_m1)_1_1 + 0.300000000000 y_2_(m1,_1,_2)_1_1
      - 0.700000000000 y_1_(2,_1,_m1)_1_0 - 0.700000000000 y_1_(m1,_1,_2)_1_0
      - 0.300000000000 y_2_(2,_1,_m1)_1_0 - 0.300000000000 y_2_(m1,_1,_2)_1_0
       >= 0
 c42: 0.700000000000 y_1_(1,_2,_m1)_2_1 + 0.700000000000 y_1_(m1,_2,_1)_2_1
      + 0.300000000000 y_2_(1,_2,_m1)_2_1 + 0.300000000000 y_2_(m1,_2,_1)_2_1
      - 0.700000000000 y_1_(1,_2,_m1)_2_0 - 0.700000000000 y_1_(m1,_2,_1)_2_0
      - 0.300000000000 y_2_(1,_2,_m1)_2_0 - 0.300000000000 y_2_(m1,_2,_1)_2_0
       >= 0
 c43: 0.700000000000 y_1_(2,_1,_m1)_1_1 + 0.700000000000 y_1_(m1,_1,_2)_1_1
      + 0.300000000000 y_2_(2,_1,_m1)_1_1 + 0.300000000000 y_2_(m1,_1,_2)_1_1
      - 0.700000000000 y_1_(2,_1,_m1)_1_2 - 0.700000000000 y_1_(m1,_1,_2)_1_2
      - 0.300000000000 y_2_(2,_1,_m1)_1_2 - 0.300000000000 y_2_(m1,_1,_2)_1_2
       >= 0
 c44: 0.700000000000 y_1_(1,_2,_m1)_2_1 + 0.700000000000 y_1_(m1,_2,_1)_2_1
      + 0.300000000000 y_2_(1,_2,_m1)_2_1 + 0.300000000000 y_2_(m1,_2,_1)_2_1
      - 0.700000000000 y_1_(1,_2,_m1)_2_2 - 0.700000000000 y_1_(m1,_2,_1)_2_2
      - 0.300000000000 y_2_(1,_2,_m1)_2_2 - 0.300000000000 y_2_(m1,_2,_1)_2_2
       >= 0
 c45: 0.700000000000 y_1_(2,_m1,_1)_1_2 + 0.700000000000 y_1_(m1,_2,_1)_1_2
      + 0.300000000000 y_2_(2,_m1,_1)_1_2 + 0.300000000000 y_2_(m1,_2,_1)_1_2
      - 0.700000000000 y_1_(2,_m1,_1)_1_0 - 0.700000000000 y_1_(m1,_2,_1)_1_0
      - 0.300000000000 y_2_(2,_m1,_1)_1_0 - 0.300000000000 y_2_(m1,_2,_1)_1_0
       >= 0
 c46: 0.700000000000 y_1_(1,_m1,_2)_2_2 + 0.700000000000 y_1_(m1,_1,_2)_2_2
      + 0.300000000000 y_2_(1,_m1,_2)_2_2 + 0.300000000000 y_2_(m1,_1,_2)_2_2
      - 0.700000000000 y_1_(1,_m1,_2)_2_0 - 0.700000000000 y_1_(m1,_1,_2)_2_0
      - 0.300000000000 y_2_(1,_m1,_2)_2_0 - 0.300000000000 y_2_(m1,_1,_2)_2_0
       >= 0
 c47: 0.700000000000 y_1_(2,_m1,_1)_1_2 + 0.700000000000 y_1_(m1,_2,_1)_1_2
      + 0.300000000000 y_2_(2,_m1,_1)_1_2 + 0.300000000000 y_2_(m1,_2,_1)_1_2
      - 0.700000000000 y_1_(2,_m1,_1)_1_1 - 0.700000000000 y_1_(m1,_2,_1)_1_1
      - 0.300000000000 y_2_(2,_m1,_1)_1_1 - 0.300000000000 y_2_(m1,_2,_1)_1_1
       >= 0
 c48: 0.700000000000 y_1_(1,_m1,_2)_2_2 + 0.700000000000 y_1_(m1,_1,_2)_2_2
      + 0.300000000000 y_2_(1,_m1,_2)_2_2 + 0.300000000000 y_2_(m1,_1,_2)_2_2
      - 0.700000000000 y_1_(1,_m1,_2)_2_1 - 0.700000000000 y_1_(m1,_1,_2)_2_1
      - 0.300000000000 y_2_(1,_m1,_2)_2_1 - 0.300000000000 y_2_(m1,_1,_2)_2_1
       >= 0
 c49: y_1_(1,_2,_m1)_1_0 - w_1_(1,_2,_m1) - 1000 h_1_0 >= -1000
 c50: y_1_(1,_2,_m1)_2_0 - w_1_(1,_2,_m1) - 1000 h_1_0 >= -1000
 c51: y_1_(1,_2,_m1)_1_0 - w_1_(1,_2,_m1) - 1000 h_1_1 >= -1000
 c52: y_1_(1,_2,_m1)_2_0 - 1000 h_1_1 >= -1000
 c53: y_1_(1,_2,_m1)_1_0 + 2 w_1_(1,_2,_m1) - 1000 h_1_2 >= -1000
 c54: y_1_(1,_2,_m1)_2_0 - 1000 h_1_2 >= -1000
 c55: y_1_(1,_2,_m1)_1_1 - 1000 h_1_0 >= -1000
 c56: y_1_(1,_2,_m1)_2_1 - w_1_(1,_2,_m1) - 1000 h_1_0 >= -1000
 c57: y_1_(1,_2,_m1)_1_1 - w_1_(1,_2,_m1) - 1000 h_1_1 >= -1000
 c58: y_1_(1,_2,_m1)_2_1 - w_1_(1,_2,_m1) - 1000 h_1_1 >= -1000
 c59: y_1_(1,_2,_m1)_1_1 + 2 w_1_(1,_2,_m1) - 1000 h_1_2 >= -1000
 c60: y_1_(1,_2,_m1)_2_1 - 1000 h_1_2 >= -1000
 c61: y_1_(1,_2,_m1)_1_2 - w_1_(1,_2,_m1) - 1000 h_1_0 >= -1000
 c62: y_1_(1,_2,_m1)_2_2 - w_1_(1,_2,_m1) - 1000 h_1_0 >= -1000
 c63: y_1_(1,_2,_m1)_1_2 - 2 w_1_(1,_2,_m1) - 1000 h_1_1 >= -1000
 c64: y_1_(1,_2,_m1)_2_2 - 1000 h_1_1 >= -1000
 c65: y_1_(1,_2,_m1)_1_2 - 2 w_1_(1,_2,_m1) - 1000 h_1_2 >= -1000
 c66: y_1_(1,_2,_m1)_2_2 - w_1_(1,_2,_m1) - 1000 h_1_2 >= -1000
 c67: y_2_(1,_2,_m1)_1_0 - w_2_(1,_2,_m1) - 1000 h_2_0 >= -1000
 c68: y_2_(1,_2,_m1)_2_0 - w_2_(1,_2,_m1) - 1000 h_2_0 >= -1000
 c69: y_2_(1,_2,_m1)_1_0 - w_2_(1,_2,_m1) - 1000 h_2_1 >= -1000
 c70: y_2_(1,_2,_m1)_2_0 - 1000 h_2_1 >= -1000
 c71: y_2_(1,_2,_m1)_1_0 + 2 w_2_(1,_2,_m1) - 1000 h_2_2 >= -1000
 c72: y_2_(1,_2,_m1)_2_0 - 1000 h_2_2 >= -1000
 c73: y_2_(1,_2,_m1)_1_1 - 1000 h_2_0 >= -1000
 c74: y_2_(1,_2,_m1)_2_1 - w_2_(1,_2,_m1) - 1000 h_2_0 >= -1000
 c75: y_2_(1,_2,_m1)_1_1 - w_2_(1,_2,_m1) - 1000 h_2_1 >= -1000
 c76: y_2_(1,_2,_m1)_2_1 - w_2_(1,_2,_m1) - 1000 h_2_1 >= -1000
 c77: y_2_(1,_2,_m1)_1_1 + 2 w_2_(1,_2,_m1) - 1000 h_2_2 >= -1000
 c78: y_2_(1,_2,_m1)_2_1 - 1000 h_2_2 >= -1000
 c79: y_2_(1,_2,_m1)_1_2 - w_2_(1,_2,_m1) - 1000 h_2_0 >= -1000
 c80: y_2_(1,_2,_m1)_2_2 - w_2_(1,_2,_m1) - 1000 h_2_0 >= -1000
 c81: y_2_(1,_2,_m1)_1_2 - 2 w_2_(1,_2,_m1) - 1000 h_2_1 >= -1000
 c82: y_2_(1,_2,_m1)_2_2 - 1000 h_2_1 >= -1000
 c83: y_2_(1,_2,_m1)_1_2 - 2 w_2_(1,_2,_m1) - 1000 h_2_2 >= -1000
 c84: y_2_(1,_2,_m1)_2_2 - w_2_(1,_2,_m1) - 1000 h_2_2 >= -1000
 c85: y_1_(1,_m1,_2)_1_0 - w_1_(1,_m1,_2) - 1000 h_1_0 >= -1000
 c86: y_1_(1,_m1,_2)_2_0 - w_1_(1,_m1,_2) - 1000 h_1_0 >= -1000
 c87: y_1_(1,_m1,_2)_1_0 + w_1_(1,_m1,_2) - 1000 h_1_1 >= -1000
 c88: y_1_(1,_m1,_2)_2_0 - 1000 h_1_1 >= -1000
 c89: y_1_(1,_m1,_2)_1_0 - w_1_(1,_m1,_2) - 1000 h_1_2 >= -1000
 c90: y_1_(1,_m1,_2)_2_0 - 1000 h_1_2 >= -1000
 c91: y_1_(1,_m1,_2)_1_1 - 1000 h_1_0 >= -1000
 c92: y_1_(1,_m1,_2)_2_1 - w_1_(1,_m1,_2) - 1000 h_1_0 >= -1000
 c93: y_1_(1,_m1,_2)_1_1 - w_1_(1,_m1,_2) - 1000 h_1_1 >= -1000
 c94: y_1_(1,_m1,_2)_2_1 - w_1_(1,_m1,_2) - 1000 h_1_1 >= -1000
 c95: y_1_(1,_m1,_2)_1_1 - w_1_(1,_m1,_2) - 1000 h_1_2 >= -1000
 c96: y_1_(1,_m1,_2)_2_1 - 1000 h_1_2 >= -1000
 c97: y_1_(1,_m1,_2)_1_2 - w_1_(1,_m1,_2) - 1000 h_1_0 >= -1000
 c98: y_1_(1,_m1,_2)_2_2 - w_1_(1,_m1,_2) - 1000 h_1_0 >= -1000
 c99: y_1_(1,_m1,_2)_1_2 - 1000 h_1_1 >= -1000
 c100: y_1_(1,_m1,_2)_2_2 - 1000 h_1_1 >= -1000
 c101: y_1_(1,_m1,_2)_1_2 - 2 w_1_(1,_m1,_2) - 1000 h_1_2 >= -1000
 c102: y_1_(1,_m1,_2)_2_2 - w_1_(1,_m1,_2) - 1000 h_1_2 >= -1000
 c103: y_2_(1,_m1,_2)_1_0 - w_2_(1,_m1,_2) - 1000 h_2_0 >= -1000
 c104: y_2_(1,_m1,_2)_2_0 - w_2_(1,_m1,_2) - 1000 h_2_0 >= -1000
 c105: y_2_(1,_m1,_2)_1_0 + w_2_(1,_m1,_2) - 1000 h_2_1 >= -1000
 c106: y_2_(1,_m1,_2)_2_0 - 1000 h_2_1 >= -1000
 c107: y_2_(1,_m1,_2)_1_0 - w_2_(1,_m1,_2) - 1000 h_2_2 >= -1000
 c108: y_2_(1,_m1,_2)_2_0 - 1000 h_2_2 >= -1000
 c109: y_2_(1,_m1,_2)_1_1 - 1000 h_2_0 >= -1000
 c110: y_2_(1,_m1,_2)_2_1 - w_2_(1,_m1,_2) - 1000 h_2_0 >= -1000
 c111: y_2_(1,_m1,_2)_1_1 - w_2_(1,_m1,_2) - 1000 h_2_1 >= -1000
 c112: y_2_(1,_m1,_2)_2_1 - w_2_(1,_m1,_2) - 1000 h_2_1 >= -1000
 c113: y_2_(1,_m1,_2)_1_1 - w_2_(1,_m1,_2) - 1000 h_2_2 >= -1000
 c114: y_2_(1,_m1,_2)_2_1 - 1000 h_2_2 >= -1000
 c115: y_2_(1,_m1,_2)_1_2 - w_2_(1,_m1,_2) - 1000 h_2_0 >= -1000
 c116: y_2_(1,_m1,_2)_2_2 - w_2_(1,_m1,_2) - 1000 h_2_0 >= -1000
 c117: y_2_(1,_m1,_2)_1_2 - 1000 h_2_1 >= -1000
 c118: y_2_(1,_m1,_2)_2_2 - 1000 h_2_1 >= -1000
 c119: y_2_(1,_m1,_2)_1_2 - 2 w_2_(1,_m1,_2) - 1000 h_2_2 >= -1000
 c120: y_2_(1,_m1,_2)_2_2 - w_2_(1,_m1,_2) - 1000 h_2_2 >= -1000
 c121: y_1_(2,_1,_m1)_1_0 - w_1_(2,_1,_m1) - 1000 h_1_0 >= -1000
 c122: y_1_(2,_1,_m1)_2_0 - w_1_(2,_1,_m1) - 1000 h_1_0 >= -1000
 c123: y_1_(2,_1,_m1)_1_0 + w_1_(2,_1,_m1) - 1000 h_1_1 >= -1000
 c124: y_1_(2,_1,_m1)_2_0 - w_1_(2,_1,_m1) - 1000 h_1_1 >= -1000
 c125: y_1_(2,_1,_m1)_1_0 + 2 w_1_(2,_1,_m1) - 1000 h_1_2 >= -1000
 c126: y_1_(2,_1,_m1)_2_0 - 1000 h_1_2 >= -1000
 c127: y_1_(2,_1,_m1)_1_1 - w_1_(2,_1,_m1) - 1000 h_1_0 >= -1000
 c128: y_1_(2,_1,_m1)_2_1 + 2 w_1_(2,_1,_m1) - 1000 h_1_0 >= -1000
 c129: y_1_(2,_1,_m1)_1_1 - w_1_(2,_1,_m1) - 1000 h_1_1 >= -1000
 c130: y_1_(2,_1,_m1)_2_1 - w_1_(2,_1,_m1) - 1000 h_1_1 >= -1000
 c131: y_1_(2,_1,_m1)_1_1 + 2 w_1_(2,_1,_m1) - 1000 h_1_2 >= -1000
 c132: y_1_(2,_1,_m1)_2_1 - 1000 h_1_2 >= -1000
 c133: y_1_(2,_1,_m1)_1_2 - 2 w_1_(2,_1,_m1) - 1000 h_1_0 >= -1000
 c134: y_1_(2,_1,_m1)_2_2 + 2 w_1_(2,_1,_m1) - 1000 h_1_0 >= -1000
 c135: y_1_(2,_1,_m1)_1_2 - 1000 h_1_1 >= -1000
 c136: y_1_(2,_1,_m1)_2_2 - w_1_(2,_1,_m1) - 1000 h_1_1 >= -1000
 c137: y_1_(2,_1,_m1)_1_2 - 2 w_1_(2,_1,_m1) - 1000 h_1_2 >= -1000
 c138: y_1_(2,_1,_m1)_2_2 - w_1_(2,_1,_m1) - 1000 h_1_2 >= -1000
 c139: y_2_(2,_1,_m1)_1_0 - w_2_(2,_1,_m1) - 1000 h_2_0 >= -1000
 c140: y_2_(2,_1,_m1)_2_0 - w_2_(2,_1,_m1) - 1000 h_2_0 >= -1000
 c141: y_2_(2,_1,_m1)_1_0 + w_2_(2,_1,_m1) - 1000 h_2_1 >= -1000
 c142: y_2_(2,_1,_m1)_2_0 - w_2_(2,_1,_m1) - 1000 h_2_1 >= -1000
 c143: y_2_(2,_1,_m1)_1_0 + 2 w_2_(2,_1,_m1) - 1000 h_2_2 >= -1000
 c144: y_2_(2,_1,_m1)_2_0 - 1000 h_2_2 >= -1000
 c145: y_2_(2,_1,_m1)_1_1 - w_2_(2,_1,_m1) - 1000 h_2_0 >= -1000
 c146: y_2_(2,_1,_m1)_2_1 + 2 w_2_(2,_1,_m1) - 1000 h_2_0 >= -1000
 c147: y_2_(2,_1,_m1)_1_1 - w_2_(2,_1,_m1) - 1000 h_2_1 >= -1000
 c148: y_2_(2,_1,_m1)_2_1 - w_2_(2,_1,_m1) - 1000 h_2_1 >= -1000
 c149: y_2_(2,_1,_m1)_1_1 + 2 w_2_(2,_1,_m1) - 1000 h_2_2 >= -1000
 c150: y_2_(2,_1,_m1)_2_1 - 1000 h_2_2 >= -1000
 c151: y_2_(2,_1,_m1)_1_2 - 2 w_2_(2,_1,_m1) - 1000 h_2_0 >= -1000
 c152: y_2_(2,_1,_m1)_2_2 + 2 w_2_(2,_1,_m1) - 1000 h_2_0 >= -1000
 c153: y_2_(2,_1,_m1)_1_2 - 1000 h_2_1 >= -1000
 c154: y_2_(2,_1,_m1)_2_2 - w_2_(2,_1,_m1) - 1000 h_2_1 >= -1000
 c155: y_2_(2,_1,_m1)_1_2 - 2 w_2_(2,_1,_m1) - 1000 h_2_2 >= -1000
 c156: y_2_(2,_1,_m1)_2_2 - w_2_(2,_1,_m1) - 1000 h_2_2 >= -1000
 c157: y_1_(2,_m1,_1)_1_0 - w_1_(2,_m1,_1) - 1000 h_1_0 >= -1000
 c158: y_1_(2,_m1,_1)_2_0 - w_1_(2,_m1,_1) - 1000 h_1_0 >= -1000
 c159: y_1_(2,_m1,_1)_1_0 + w_1_(2,_m1,_1) - 1000 h_1_1 >= -1000
 c160: y_1_(2,_m1,_1)_2_0 - 1000 h_1_1 >= -1000
 c161: y_1_(2,_m1,_1)_1_0 + 2 w_1_(2,_m1,_1) - 1000 h_1_2 >= -1000
 c162: y_1_(2,_m1,_1)_2_0 - w_1_(2,_m1,_1) - 1000 h_1_2 >= -1000
 c163: y_1_(2,_m1,_1)_1_1 - w_1_(2,_m1,_1) - 1000 h_1_0 >= -1000
 c164: y_1_(2,_m1,_1)_2_1 + 2 w_1_(2,_m1,_1) - 1000 h_1_0 >= -1000
 c165: y_1_(2,_m1,_1)_1_1 - w_1_(2,_m1,_1) - 1000 h_1_1 >= -1000
 c166: y_1_(2,_m1,_1)_2_1 - w_1_(2,_m1,_1) - 1000 h_1_1 >= -1000
 c167: y_1_(2,_m1,_1)_1_1 + 2 w_1_(2,_m1,_1) - 1000 h_1_2 >= -1000
 c168: y_1_(2,_m1,_1)_2_1 - w_1_(2,_m1,_1) - 1000 h_1_2 >= -1000
 c169: y_1_(2,_m1,_1)_1_2 - 2 w_1_(2,_m1,_1) - 1000 h_1_0 >= -1000
 c170: y_1_(2,_m1,_1)_2_2 + 2 w_1_(2,_m1,_1) - 1000 h_1_0 >= -1000
 c171: y_1_(2,_m1,_1)_1_2 - 1000 h_1_1 >= -1000
 c172: y_1_(2,_m1,_1)_2_2 - 1000 h_1_1 >= -1000
 c173: y_1_(2,_m1,_1)_1_2 - 2 w_1_(2,_m1,_1) - 1000 h_1_2 >= -1000
 c174: y_1_(2,_m1,_1)_2_2 - w_1_(2,_m1,_1) - 1000 h_1_2 >= -1000
 c175: y_2_(2,_m1,_1)_1_0 - w_2_(2,_m1,_1) - 1000 h_2_0 >= -1000
 c176: y_2_(2,_m1,_1)_2_0 - w_2_(2,_m1,_1) - 1000 h_2_0 >= -1000
 c177: y_2_(2,_m1,_1)_1_0 + w_2_(2,_m1,_1) - 1000 h_2_1 >= -1000
 c178: y_2_(2,_m1,_1)_2_0 - 1000 h_2_1 >= -1000
 c179: y_2_(2,_m1,_1)_1_0 + 2 w_2_(2,_m1,_1) - 1000 h_2_2 >= -1000
 c180: y_2_(2,_m1,_1)_2_0 - w_2_(2,_m1,_1) - 1000 h_2_2 >= -1000
 c181: y_2_(2,_m1,_1)_1_1 - w_2_(2,_m1,_1) - 1000 h_2_0 >= -1000
 c182: y_2_(2,_m1,_1)_2_1 + 2 w_2_(2,_m1,_1) - 1000 h_2_0 >= -1000
 c183: y_2_(2,_m1,_1)_1_1 - w_2_(2,_m1,_1) - 1000 h_2_1 >= -1000
 c184: y_2_(2,_m1,_1)_2_1 - w_2_(2,_m1,_1) - 1000 h_2_1 >= -1000
 c185: y_2_(2,_m1,_1)_1_1 + 2 w_2_(2,_m1,_1) - 1000 h_2_2 >= -1000
 c186: y_2_(2,_m1,_1)_2_1 - w_2_(2,_m1,_1) - 1000 h_2_2 >= -1000
 c187: y_2_(2,_m1,_1)_1_2 - 2 w_2_(2,_m1,_1) - 1000 h_2_0 >= -1000
 c188: y_2_(2,_m1,_1)_2_2 + 2 w_2_(2,_m1,_1) - 1000 h_2_0 >= -1000
 c189: y_2_(2,_m1,_1)_1_2 - 1000 h_2_1 >= -1000
 c190: y_2_(2,_m1,_1)_2_2 - 1000 h_2_1 >= -1000
 c191: y_2_(2,_m1,_1)_1_2 - 2 w_2_(2,_m1,_1) - 1000 h_2_2 >= -1000
 c192: y_2_(2,_m1,_1)_2_2 - w_2_(2,_m1,_1) - 1000 h_2_2 >= -1000
 c193: y_1_(m1,_1,_2)_1_0 - w_1_(m1,_1,_2) - 1000 h_1_0 >= -1000
 c194: y_1_(m1,_1,_2)_2_0 - w_1_(m1,_1,_2) - 1000 h_1_0 >= -1000
 c195: y_1_(m1,_1,_2)_1_0 + w_1_(m1,_1,_2) - 1000 h_1_1 >= -1000
 c196: y_1_(m1,_1,_2)_2_0 - w_1_(m1,_1,_2) - 1000 h_1_1 >= -1000
 c197: y_1_(m1,_1,_2)_1_0 - w_1_(m1,_1,_2) - 1000 h_1_2 >= -1000
 c198: y_1_(m1,_1,_2)_2_0 - 1000 h_1_2 >= -1000
 c199: y_1_(m1,_1,_2)_1_1 - 1000 h_1_0 >= -1000
 c200: y_1_(m1,_1,_2)_2_1 + 2 w_1_(m1,_1,_2) - 1000 h_1_0 >= -1000
 c201: y_1_(m1,_1,_2)_1_1 - w_1_(m1,_1,_2) - 1000 h_1_1 >= -1000
 c202: y_1_(m1,_1,_2)_2_1 - w_1_(m1,_1,_2) - 1000 h_1_1 >= -1000
 c203: y_1_(m1,_1,_2)_1_1 - w_1_(m1,_1,_2) - 1000 h_1_2 >= -1000
 c204: y_1_(m1,_1,_2)_2_1 - 1000 h_1_2 >= -1000
 c205: y_1_(m1,_1,_2)_1_2 - w_1_(m1,_1,_2) - 1000 h_1_0 >= -1000
 c206: y_1_(m1,_1,_2)_2_2 + 2 w_1_(m1,_1,_2) - 1000 h_1_0 >= -1000
 c207: y_1_(m1,_1,_2)_1_2 - 1000 h_1_1 >= -1000
 c208: y_1_(m1,_1,_2)_2_2 - w_1_(m1,_1,_2) - 1000 h_1_1 >= -1000
 c209: y_1_(m1,_1,_2)_1_2 - 2 w_1_(m1,_1,_2) - 1000 h_1_2 >= -1000
 c210: y_1_(m1,_1,_2)_2_2 - w_1_(m1,_1,_2) - 1000 h_1_2 >= -1000
 c211: y_2_(m1,_1,_2)_1_0 - w_2_(m1,_1,_2) - 1000 h_2_0 >= -1000
 c212: y_2_(m1,_1,_2)_2_0 - w_2_(m1,_1,_2) - 1000 h_2_0 >= -1000
 c213: y_2_(m1,_1,_2)_1_0 + w_2_(m1,_1,_2) - 1000 h_2_1 >= -1000
 c214: y_2_(m1,_1,_2)_2_0 - w_2_(m1,_1,_2) - 1000 h_2_1 >= -1000
 c215: y_2_(m1,_1,_2)_1_0 - w_2_(m1,_1,_2) - 1000 h_2_2 >= -1000
 c216: y_2_(m1,_1,_2)_2_0 - 1000 h_2_2 >= -1000
 c217: y_2_(m1,_1,_2)_1_1 - 1000 h_2_0 >= -1000
 c218: y_2_(m1,_1,_2)_2_1 + 2 w_2_(m1,_1,_2) - 1000 h_2_0 >= -1000
 c219: y_2_(m1,_1,_2)_1_1 - w_2_(m1,_1,_2) - 1000 h_2_1 >= -1000
 c220: y_2_(m1,_1,_2)_2_1 - w_2_(m1,_1,_2) - 1000 h_2_1 >= -1000
 c221: y_2_(m1,_1,_2)_1_1 - w_2_(m1,_1,_2) - 1000 h_2_2 >= -1000
 c222: y_2_(m1,_1,_2)_2_1 - 1000 h_2_2 >= -1000
 c223: y_2_(m1,_1,_2)_1_2 - w_2_(m1,_1,_2) - 1000 h_2_0 >= -1000
 c224: y_2_(m1,_1,_2)_2_2 + 2 w_2_(m1,_1,_2) - 1000 h_2_0 >= -1000
 c225: y_2_(m1,_1,_2)_1_2 - 1000 h_2_1 >= -1000
 c226: y_2_(m1,_1,_2)_2_2 - w_2_(m1,_1,_2) - 1000 h_2_1 >= -1000
 c227: y_2_(m1,_1,_2)_1_2 - 2 w_2_(m1,_1,_2) - 1000 h_2_2 >= -1000
 c228: y_2_(m1,_1,_2)_2_2 - w_2_(m1,_1,_2) - 1000 h_2_2 >= -1000
 c229: y_1_(m1,_2,_1)_1_0 - w_1_(m1,_2,_1) - 1000 h_1_0 >= -1000
 c230: y_1_(m1,_2,_1)_2_0 - w_1_(m1,_2,_1) - 1000 h_1_0 >= -1000
 c231: y_1_(m1,_2,_1)_1_0 - w_1_(m1,_2,_1) - 1000 h_1_1 >= -1000
 c232: y_1_(m1,_2,_1)_2_0 - 1000 h_1_1 >= -1000
 c233: y_1_(m1,_2,_1)_1_0 + 2 w_1_(m1,_2,_1) - 1000 h_1_2 >= -1000
 c234: y_1_(m1,_2,_1)_2_0 - w_1_(m1,_2,_1) - 1000 h_1_2 >= -1000
 c235: y_1_(m1,_2,_1)_1_1 - 1000 h_1_0 >= -1000
 c236: y_1_(m1,_2,_1)_2_1 + 2 w_1_(m1,_2,_1) - 1000 h_1_0 >= -1000
 c237: y_1_(m1,_2,_1)_1_1 - w_1_(m1,_2,_1) - 1000 h_1_1 >= -1000
 c238: y_1_(m1,_2,_1)_2_1 - w_1_(m1,_2,_1) - 1000 h_1_1 >= -1000
 c239: y_1_(m1,_2,_1)_1_1 + 2 w_1_(m1,_2,_1) - 1000 h_1_2 >= -1000
 c240: y_1_(m1,_2,_1)_2_1 - w_1_(m1,_2,_1) - 1000 h_1_2 >= -1000
 c241: y_1_(m1,_2,_1)_1_2 - w_1_(m1,_2,_1) - 1000 h_1_0 >= -1000
 c242: y_1_(m1,_2,_1)_2_2 + 2 w_1_(m1,_2,_1) - 1000 h_1_0 >= -1000
 c243: y_1_(m1,_2,_1)_1_2 - 2 w_1_(m1,_2,_1) - 1000 h_1_1 >= -1000
 c244: y_1_(m1,_2,_1)_2_2 - 1000 h_1_1 >= -1000
 c245: y_1_(m1,_2,_1)_1_2 - 2 w_1_(m1,_2,_1) - 1000 h_1_2 >= -1000
 c246: y_1_(m1,_2,_1)_2_2 - w_1_(m1,_2,_1) - 1000 h_1_2 >= -1000
 c247: y_2_(m1,_2,_1)_1_0 - w_2_(m1,_2,_1) - 1000 h_2_0 >= -1000
 c248: y_2_(m1,_2,_1)_2_0 - w_2_(m1,_2,_1) - 1000 h_2_0 >= -1000
 c249: y_2_(m1,_2,_1)_1_0 - w_2_(m1,_2,_1) - 1000 h_2_1 >= -1000
 c250: y_2_(m1,_2,_1)_2_0 - 1000 h_2_1 >= -1000
 c251: y_2_(m1,_2,_1)_1_0 + 2 w_2_(m1,_2,_1) - 1000 h_2_2 >= -1000
 c252: y_2_(m1,_2,_1)_2_0 - w_2_(m1,_2,_1) - 1000 h_2_2 >= -1000
 c253: y_2_(m1,_2,_1)_1_1 - 1000 h_2_0 >= -1000
 c254: y_2_(m1,_2,_1)_2_1 + 2 w_2_(m1,_2,_1) - 1000 h_2_0 >= -1000
 c255: y_2_(m1,_2,_1)_1_1 - w_2_(m1,_2,_1) - 1000 h_2_1 >= -1000
 c256: y_2_(m1,_2,_1)_2_1 - w_2_(m1,_2,_1) - 1000 h_2_1 >= -1000
 c257: y_2_(m1,_2,_1)_1_1 + 2 w_2_(m1,_2,_1) - 1000 h_2_2 >= -1000
 c258: y_2_(m1,_2,_1)_2_1 - w_2_(m1,_2,_1) - 1000 h_2_2 >= -1000
 c259: y_2_(m1,_2,_1)_1_2 - w_2_(m1,_2,_1) - 1000 h_2_0 >= -1000
 c260: y_2_(m1,_2,_1)_2_2 + 2 w_2_(m1,_2,_1) - 1000 h_2_0 >= -1000
 c261: y_2_(m1,_2,_1)_1_2 - 2 w_2_(m1,_2,_1) - 1000 h_2_1 >= -1000
 c262: y_2_(m1,_2,_1)_2_2 - 1000 h_2_1 >= -1000
 c263: y_2_(m1,_2,_1)_1_2 - 2 w_2_(m1,_2,_1) - 1000 h_2_2 >= -1000
 c264: y_2_(m1,_2,_1)_2_2 - w_2_(m1,_2,_1) - 1000 h_2_2 >= -1000
 c265: y_1_(1,_2,_m1)_1_0 - w_1_(1,_2,_m1) + 1000 h_1_0 <= 1000
 c266: y_1_(1,_2,_m1)_2_0 - w_1_(1,_2,_m1) + 1000 h_1_0 <= 1000
 c267: y_1_(1,_2,_m1)_1_0 - w_1_(1,_2,_m1) + 1000 h_1_1 <= 1000
 c268: y_1_(1,_2,_m1)_2_0 + 1000 h_1_1 <= 1000
 c269: y_1_(1,_2,_m1)_1_0 + 2 w_1_(1,_2,_m1) + 1000 h_1_2 <= 1000
 c270: y_1_(1,_2,_m1)_2_0 + 1000 h_1_2 <= 1000
 c271: y_1_(1,_2,_m1)_1_1 + 1000 h_1_0 <= 1000
 c272: y_1_(1,_2,_m1)_2_1 - w_1_(1,_2,_m1) + 1000 h_1_0 <= 1000
 c273: y_1_(1,_2,_m1)_1_1 - w_1_(1,_2,_m1) + 1000 h_1_1 <= 1000
 c274: y_1_(1,_2,_m1)_2_1 - w_1_(1,_2,_m1) + 1000 h_1_1 <= 1000
 c275: y_1_(1,_2,_m1)_1_1 + 2 w_1_(1,_2,_m1) + 1000 h_1_2 <= 1000
 c276: y_1_(1,_2,_m1)_2_1 + 1000 h_1_2 <= 1000
 c277: y_1_(1,_2,_m1)_1_2 - w_1_(1,_2,_m1) + 1000 h_1_0 <= 1000
 c278: y_1_(1,_2,_m1)_2_2 - w_1_(1,_2,_m1) + 1000 h_1_0 <= 1000
 c279: y_1_(1,_2,_m1)_1_2 - 2 w_1_(1,_2,_m1) + 1000 h_1_1 <= 1000
 c280: y_1_(1,_2,_m1)_2_2 + 1000 h_1_1 <= 1000
 c281: y_1_(1,_2,_m1)_1_2 - 2 w_1_(1,_2,_m1) + 1000 h_1_2 <= 1000
 c282: y_1_(1,_2,_m1)_2_2 - w_1_(1,_2,_m1) + 1000 h_1_2 <= 1000
 c283: y_2_(1,_2,_m1)_1_0 - w_2_(1,_2,_m1) + 1000 h_2_0 <= 1000
 c284: y_2_(1,_2,_m1)_2_0 - w_2_(1,_2,_m1) + 1000 h_2_0 <= 1000
 c285: y_2_(1,_2,_m1)_1_0 - w_2_(1,_2,_m1) + 1000 h_2_1 <= 1000
 c286: y_2_(1,_2,_m1)_2_0 + 1000 h_2_1 <= 1000
 c287: y_2_(1,_2,_m1)_1_0 + 2 w_2_(1,_2,_m1) + 1000 h_2_2 <= 1000
 c288: y_2_(1,_2,_m1)_2_0 + 1000 h_2_2 <= 1000
 c289: y_2_(1,_2,_m1)_1_1 + 1000 h_2_0 <= 1000
 c290: y_2_(1,_2,_m1)_2_1 - w_2_(1,_2,_m1) + 1000 h_2_0 <= 1000
 c291: y_2_(1,_2,_m1)_1_1 - w_2_(1,_2,_m1) + 1000 h_2_1 <= 1000
 c292: y_2_(1,_2,_m1)_2_1 - w_2_(1,_2,_m1) + 1000 h_2_1 <= 1000
 c293: y_2_(1,_2,_m1)_1_1 + 2 w_2_(1,_2,_m1) + 1000 h_2_2 <= 1000
 c294: y_2_(1,_2,_m1)_2_1 + 1000 h_2_2 <= 1000
 c295: y_2_(1,_2,_m1)_1_2 - w_2_(1,_2,_m1) + 1000 h_2_0 <= 1000
 c296: y_2_(1,_2,_m1)_2_2 - w_2_(1,_2,_m1) + 1000 h_2_0 <= 1000
 c297: y_2_(1,_2,_m1)_1_2 - 2 w_2_(1,_2,_m1) + 1000 h_2_1 <= 1000
 c298: y_2_(1,_2,_m1)_2_2 + 1000 h_2_1 <= 1000
 c299: y_2_(1,_2,_m1)_1_2 - 2 w_2_(1,_2,_m1) + 1000 h_2_2 <= 1000
 c300: y_2_(1,_2,_m1)_2_2 - w_2_(1,_2,_m1) + 1000 h_2_2 <= 1000
 c301: y_1_(1,_m1,_2)_1_0 - w_1_(1,_m1,_2) + 1000 h_1_0 <= 1000
 c302: y_1_(1,_m1,_2)_2_0 - w_1_(1,_m1,_2) + 1000 h_1_0 <= 1000
 c303: y_1_(1,_m1,_2)_1_0 + w_1_(1,_m1,_2) + 1000 h_1_1 <= 1000
 c304: y_1_(1,_m1,_2)_2_0 + 1000 h_1_1 <= 1000
 c305: y_1_(1,_m1,_2)_1_0 - w_1_(1,_m1,_2) + 1000 h_1_2 <= 1000
 c306: y_1_(1,_m1,_2)_2_0 + 1000 h_1_2 <= 1000
 c307: y_1_(1,_m1,_2)_1_1 + 1000 h_1_0 <= 1000
 c308: y_1_(1,_m1,_2)_2_1 - w_1_(1,_m1,_2) + 1000 h_1_0 <= 1000
 c309: y_1_(1,_m1,_2)_1_1 - w_1_(1,_m1,_2) + 1000 h_1_1 <= 1000
 c310: y_1_(1,_m1,_2)_2_1 - w_1_(1,_m1,_2) + 1000 h_1_1 <= 1000
 c311: y_1_(1,_m1,_2)_1_1 - w_1_(1,_m1,_2) + 1000 h_1_2 <= 1000
 c312: y_1_(1,_m1,_2)_2_1 + 1000 h_1_2 <= 1000
 c313: y_1_(1,_m1,_2)_1_2 - w_1_(1,_m1,_2) + 1000 h_1_0 <= 1000
 c314: y_1_(1,_m1,_2)_2_2 - w_1_(1,_m1,_2) + 1000 h_1_0 <= 1000
 c315: y_1_(1,_m1,_2)_1_2 + 1000 h_1_1 <= 1000
 c316: y_1_(1,_m1,_2)_2_2 + 1000 h_1_1 <= 1000
 c317: y_1_(1,_m1,_2)_1_2 - 2 w_1_(1,_m1,_2) + 1000 h_1_2 <= 1000
 c318: y_1_(1,_m1,_2)_2_2 - w_1_(1,_m1,_2) + 1000 h_1_2 <= 1000
 c319: y_2_(1,_m1,_2)_1_0 - w_2_(1,_m1,_2) + 1000 h_2_0 <= 1000
 c320: y_2_(1,_m1,_2)_2_0 - w_2_(1,_m1,_2) + 1000 h_2_0 <= 1000
 c321: y_2_(1,_m1,_2)_1_0 + w_2_(1,_m1,_2) + 1000 h_2_1 <= 1000
 c322: y_2_(1,_m1,_2)_2_0 + 1000 h_2_1 <= 1000
 c323: y_2_(1,_m1,_2)_1_0 - w_2_(1,_m1,_2) + 1000 h_2_2 <= 1000
 c324: y_2_(1,_m1,_2)_2_0 + 1000 h_2_2 <= 1000
 c325: y_2_(1,_m1,_2)_1_1 + 1000 h_2_0 <= 1000
 c326: y_2_(1,_m1,_2)_2_1 - w_2_(1,_m1,_2) + 1000 h_2_0 <= 1000
 c327: y_2_(1,_m1,_2)_1_1 - w_2_(1,_m1,_2) + 1000 h_2_1 <= 1000
 c328: y_2_(1,_m1,_2)_2_1 - w_2_(1,_m1,_2) + 1000 h_2_1 <= 1000
 c329: y_2_(1,_m1,_2)_1_1 - w_2_(1,_m1,_2) + 1000 h_2_2 <= 1000
 c330: y_2_(1,_m1,_2)_2_1 + 1000 h_2_2 <= 1000
 c331: y_2_(1,_m1,_2)_1_2 - w_2_(1,_m1,_2) + 1000 h_2_0 <= 1000
 c332: y_2_(1,_m1,_2)_2_2 - w_2_(1,_m1,_2) + 1000 h_2_0 <= 1000
 c333: y_2_(1,_m1,_2)_1_2 + 1000 h_2_1 <= 1000
 c334: y_2_(1,_m1,_2)_2_2 + 1000 h_2_1 <= 1000
 c335: y_2_(1,_m1,_2)_1_2 - 2 w_2_(1,_m1,_2) + 1000 h_2_2 <= 1000
 c336: y_2_(1,_m1,_2)_2_2 - w_2_(1,_m1,_2) + 1000 h_2_2 <= 1000
 c337: y_1_(2,_1,_m1)_1_0 - w_1_(2,_1,_m1) + 1000 h_1_0 <= 1000
 c338: y_1_(2,_1,_m1)_2_0 - w_1_(2,_1,_m1) + 1000 h_1_0 <= 1000
 c339: y_1_(2,_1,_m1)_1_0 + w_1_(2,_1,_m1) + 1000 h_1_1 <= 1000
 c340: y_1_(2,_1,_m1)_2_0 - w_1_(2,_1,_m1) + 1000 h_1_1 <= 1000
 c341: y_1_(2,_1,_m1)_1_0 + 2 w_1_(2,_1,_m1) + 1000 h_1_2 <= 1000
 c342: y_1_(2,_1,_m1)_2_0 + 1000 h_1_2 <= 1000
 c343: y_1_(2,_1,_m1)_1_1 - w_1_(2,_1,_m1) + 1000 h_1_0 <= 1000
 c344: y_1_(2,_1,_m1)_2_1 + 2 w_1_(2,_1,_m1) + 1000 h_1_0 <= 1000
 c345: y_1_(2,_1,_m1)_1_1 - w_1_(2,_1,_m1) + 1000 h_1_1 <= 1000
 c346: y_1_(2,_1,_m1)_2_1 - w_1_(2,_1,_m1) + 1000 h_1_1 <= 1000
 c347: y_1_(2,_1,_m1)_1_1 + 2 w_1_(2,_1,_m1) + 1000 h_1_2 <= 1000
 c348: y_1_(2,_1,_m1)_2_1 + 1000 h_1_2 <= 1000
 c349: y_1_(2,_1,_m1)_1_2 - 2 w_1_(2,_1,_m1) + 1000 h_1_0 <= 1000
 c350: y_1_(2,_1,_m1)_2_2 + 2 w_1_(2,_1,_m1) + 1000 h_1_0 <= 1000
 c351: y_1_(2,_1,_m1)_1_2 + 1000 h_1_1 <= 1000
 c352: y_1_(2,_1,_m1)_2_2 - w_1_(2,_1,_m1) + 1000 h_1_1 <= 1000
 c353: y_1_(2,_1,_m1)_1_2 - 2 w_1_(2,_1,_m1) + 1000 h_1_2 <= 1000
 c354: y_1_(2,_1,_m1)_2_2 - w_1_(2,_1,_m1) + 1000 h_1_2 <= 1000
 c355: y_2_(2,_1,_m1)_1_0 - w_2_(2,_1,_m1) + 1000 h_2_0 <= 1000
 c356: y_2_(2,_1,_m1)_2_0 - w_2_(2,_1,_m1) + 1000 h_2_0 <= 1000
 c357: y_2_(2,_1,_m1)_1_0 + w_2_(2,_1,_m1) + 1000 h_2_1 <= 1000
 c358: y_2_(2,_1,_m1)_2_0 - w_2_(2,_1,_m1) + 1000 h_2_1 <= 1000
 c359: y_2_(2,_1,_m1)_1_0 + 2 w_2_(2,_1,_m1) + 1000 h_2_2 <= 1000
 c360: y_2_(2,_1,_m1)_2_0 + 1000 h_2_2 <= 1000
 c361: y_2_(2,_1,_m1)_1_1 - w_2_(2,_1,_m1) + 1000 h_2_0 <= 1000
 c362: y_2_(2,_1,_m1)_2_1 + 2 w_2_(2,_1,_m1) + 1000 h_2_0 <= 1000
 c363: y_2_(2,_1,_m1)_1_1 - w_2_(2,_1,_m1) + 1000 h_2_1 <= 1000
 c364: y_2_(2,_1,_m1)_2_1 - w_2_(2,_1,_m1) + 1000 h_2_1 <= 1000
 c365: y_2_(2,_1,_m1)_1_1 + 2 w_2_(2,_1,_m1) + 1000 h_2_2 <= 1000
 c366: y_2_(2,_1,_m1)_2_1 + 1000 h_2_2 <= 1000
 c367: y_2_(2,_1,_m1)_1_2 - 2 w_2_(2,_1,_m1) + 1000 h_2_0 <= 1000
 c368: y_2_(2,_1,_m1)_2_2 + 2 w_2_(2,_1,_m1) + 1000 h_2_0 <= 1000
 c369: y_2_(2,_1,_m1)_1_2 + 1000 h_2_1 <= 1000
 c370: y_2_(2,_1,_m1)_2_2 - w_2_(2,_1,_m1) + 1000 h_2_1 <= 1000
 c371: y_2_(2,_1,_m1)_1_2 - 2 w_2_(2,_1,_m1) + 1000 h_2_2 <= 1000
 c372: y_2_(2,_1,_m1)_2_2 - w_2_(2,_1,_m1) + 1000 h_2_2 <= 1000
 c373: y_1_(2,_m1,_1)_1_0 - w_1_(2,_m1,_1) + 1000 h_1_0 <= 1000
 c374: y_1_(2,_m1,_1)_2_0 - w_1_(2,_m1,_1) + 1000 h_1_0 <= 1000
 c375: y_1_(2,_m1,_1)_1_0 + w_1_(2,_m1,_1) + 1000 h_1_1 <= 1000
 c376: y_1_(2,_m1,_1)_2_0 + 1000 h_1_1 <= 1000
 c377: y_1_(2,_m1,_1)_1_0 + 2 w_1_(2,_m1,_1) + 1000 h_1_2 <= 1000
 c378: y_1_(2,_m1,_1)_2_0 - w_1_(2,_m1,_1) + 1000 h_1_2 <= 1000
 c379: y_1_(2,_m1,_1)_1_1 - w_1_(2,_m1,_1) + 1000 h_1_0 <= 1000
 c380: y_1_(2,_m1,_1)_2_1 + 2 w_1_(2,_m1,_1) + 1000 h_1_0 <= 1000
 c381: y_1_(2,_m1,_1)_1_1 - w_1_(2,_m1,_1) + 1000 h_1_1 <= 1000
 c382: y_1_(2,_m1,_1)_2_1 - w_1_(2,_m1,_1) + 1000 h_1_1 <= 1000
 c383: y_1_(2,_m1,_1)_1_1 + 2 w_1_(2,_m1,_1) + 1000 h_1_2 <= 1000
 c384: y_1_(2,_m1,_1)_2_1 - w_1_(2,_m1,_1) + 1000 h_1_2 <= 1000
 c385: y_1_(2,_m1,_1)_1_2 - 2 w_1_(2,_m1,_1) + 1000 h_1_0 <= 1000
 c386: y_1_(2,_m1,_1)_2_2 + 2 w_1_(2,_m1,_1) + 1000 h_1_0 <= 1000
 c387: y_1_(2,_m1,_1)_1_2 + 1000 h_1_1 <= 1000
 c388: y_1_(2,_m1,_1)_2_2 + 1000 h_1_1 <= 1000
 c389: y_1_(2,_m1,_1)_1_2 - 2 w_1_(2,_m1,_1) + 1000 h_1_2 <= 1000
 c390: y_1_(2,_m1,_1)_2_2 - w_1_(2,_m1,_1) + 1000 h_1_2 <= 1000
 c391: y_2_(2,_m1,_1)_1_0 - w_2_(2,_m1,_1) + 1000 h_2_0 <= 1000
 c392: y_2_(2,_m1,_1)_2_0 - w_2_(2,_m1,_1) + 1000 h_2_0 <= 1000
 c393: y_2_(2,_m1,_1)_1_0 + w_2_(2,_m1,_1) + 1000 h_2_1 <= 1000
 c394: y_2_(2,_m1,_1)_2_0 + 1000 h_2_1 <= 1000
 c395: y_2_(2,_m1,_1)_1_0 + 2 w_2_(2,_m1,_1) + 1000 h_2_2 <= 1000
 c396: y_2_(2,_m1,_1)_2_0 - w_2_(2,_m1,_1) + 1000 h_2_2 <= 1000
 c397: y_2_(2,_m1,_1)_1_1 - w_2_(2,_m1,_1) + 1000 h_2_0 <= 1000
 c398: y_2_(2,_m1,_1)_2_1 + 2 w_2_(2,_m1,_1) + 1000 h_2_0 <= 1000
 c399: y_2_(2,_m1,_1)_1_1 - w_2_(2,_m1,_1) + 1000 h_2_1 <= 1000
 c400: y_2_(2,_m1,_1)_2_1 - w_2_(2,_m1,_1) + 1000 h_2_1 <= 1000
 c401: y_2_(2,_m1,_1)_1_1 + 2 w_2_(2,_m1,_1) + 1000 h_2_2 <= 1000
 c402: y_2_(2,_m1,_1)_2_1 - w_2_(2,_m1,_1) + 1000 h_2_2 <= 1000
 c403: y_2_(2,_m1,_1)_1_2 - 2 w_2_(2,_m1,_1) + 1000 h_2_0 <= 1000
 c404: y_2_(2,_m1,_1)_2_2 + 2 w_2_(2,_m1,_1) + 1000 h_2_0 <= 1000
 c405: y_2_(2,_m1,_1)_1_2 + 1000 h_2_1 <= 1000
 c406: y_2_(2,_m1,_1)_2_2 + 1000 h_2_1 <= 1000
 c407: y_2_(2,_m1,_1)_1_2 - 2 w_2_(2,_m1,_1) + 1000 h_2_2 <= 1000
 c408: y_2_(2,_m1,_1)_2_2 - w_2_(2,_m1,_1) + 1000 h_2_2 <= 1000
 c409: y_1_(m1,_1,_2)_1_0 - w_1_(m1,_1,_2) + 1000 h_1_0 <= 1000
 c410: y_1_(m1,_1,_2)_2_0 - w_1_(m1,_1,_2) + 1000 h_1_0 <= 1000
 c411: y_1_(m1,_1,_2)_1_0 + w_1_(m1,_1,_2) + 1000 h_1_1 <= 1000
 c412: y_1_(m1,_1,_2)_2_0 - w_1_(m1,_1,_2) + 1000 h_1_1 <= 1000
 c413: y_1_(m1,_1,_2)_1_0 - w_1_(m1,_1,_2) + 1000 h_1_2 <= 1000
 c414: y_1_(m1,_1,_2)_2_0 + 1000 h_1_2 <= 1000
 c415: y_1_(m1,_1,_2)_1_1 + 1000 h_1_0 <= 1000
 c416: y_1_(m1,_1,_2)_2_1 + 2 w_1_(m1,_1,_2) + 1000 h_1_0 <= 1000
 c417: y_1_(m1,_1,_2)_1_1 - w_1_(m1,_1,_2) + 1000 h_1_1 <= 1000
 c418: y_1_(m1,_1,_2)_2_1 - w_1_(m1,_1,_2) + 1000 h_1_1 <= 1000
 c419: y_1_(m1,_1,_2)_1_1 - w_1_(m1,_1,_2) + 1000 h_1_2 <= 1000
 c420: y_1_(m1,_1,_2)_2_1 + 1000 h_1_2 <= 1000
 c421: y_1_(m1,_1,_2)_1_2 - w_1_(m1,_1,_2) + 1000 h_1_0 <= 1000
 c422: y_1_(m1,_1,_2)_2_2 + 2 w_1_(m1,_1,_2) + 1000 h_1_0 <= 1000
 c423: y_1_(m1,_1,_2)_1_2 + 1000 h_1_1 <= 1000
 c424: y_1_(m1,_1,_2)_2_2 - w_1_(m1,_1,_2) + 1000 h_1_1 <= 1000
 c425: y_1_(m1,_1,_2)_1_2 - 2 w_1_(m1,_1,_2) + 1000 h_1_2 <= 1000
 c426: y_1_(m1,_1,_2)_2_2 - w_1_(m1,_1,_2) + 1000 h_1_2 <= 1000
 c427: y_2_(m1,_1,_2)_1_0 - w_2_(m1,_1,_2) + 1000 h_2_0 <= 1000
 c428: y_2_(m1,_1,_2)_2_0 - w_2_(m1,_1,_2) + 1000 h_2_0 <= 1000
 c429: y_2_(m1,_1,_2)_1_0 + w_2_(m1,_1,_2) + 1000 h_2_1 <= 1000
 c430: y_2_(m1,_1,_2)_2_0 - w_2_(m1,_1,_2) + 1000 h_2_1 <= 1000
 c431: y_2_(m1,_1,_2)_1_0 - w_2_(m1,_1,_2) + 1000 h_2_2 <= 1000
 c432: y_2_(m1,_1,_2)_2_0 + 1000 h_2_2 <= 1000
 c433: y_2_(m1,_1,_2)_1_1 + 1000 h_2_0 <= 1000
 c434: y_2_(m1,_1,_2)_2_1 + 2 w_2_(m1,_1,_2) + 1000 h_2_0 <= 1000
 c435: y_2_(m1,_1,_2)_1_1 - w_2_(m1,_1,_2) + 1000 h_2_1 <= 1000
 c436: y_2_(m1,_1,_2)_2_1 - w_2_(m1,_1,_2) + 1000 h_2_1 <= 1000
 c437: y_2_(m1,_1,_2)_1_1 - w_2_(m1,_1,_2) + 1000 h_2_2 <= 1000
 c438: y_2_(m1,_1,_2)_2_1 + 1000 h_2_2 <= 1000
 c439: y_2_(m1,_1,_2)_1_2 - w_2_(m1,_1,_2) + 1000 h_2_0 <= 1000
 c440: y_2_(m1,_1,_2)_2_2 + 2 w_2_(m1,_1,_2) + 1000 h_2_0 <= 1000
 c441: y_2_(m1,_1,_2)_1_2 + 1000 h_2_1 <= 1000
 c442: y_2_(m1,_1,_2)_2_2 - w_2_(m1,_1,_2) + 1000 h_2_1 <= 1000
 c443: y_2_(m1,_1,_2)_1_2 - 2 w_2_(m1,_1,_2) + 1000 h_2_2 <= 1000
 c444: y_2_(m1,_1,_2)_2_2 - w_2_(m1,_1,_2) + 1000 h_2_2 <= 1000
 c445: y_1_(m1,_2,_1)_1_0 - w_1_(m1,_2,_1) + 1000 h_1_0 <= 1000
 c446: y_1_(m1,_2,_1)_2_0 - w_1_(m1,_2,_1) + 1000 h_1_0 <= 1000
 c447: y_1_(m1,_2,_1)_1_0 - w_1_(m1,_2,_1) + 1000 h_1_1 <= 1000
 c448: y_1_(m1,_2,_1)_2_0 + 1000 h_1_1 <= 1000
 c449: y_1_(m1,_2,_1)_1_0 + 2 w_1_(m1,_2,_1) + 1000 h_1_2 <= 1000
 c450: y_1_(m1,_2,_1)_2_0 - w_1_(m1,_2,_1) + 1000 h_1_2 <= 1000
 c451: y_1_(m1,_2,_1)_1_1 + 1000 h_1_0 <= 1000
 c452: y_1_(m1,_2,_1)_2_1 + 2 w_1_(m1,_2,_1) + 1000 h_1_0 <= 1000
 c453: y_1_(m1,_2,_1)_1_1 - w_1_(m1,_2,_1) + 1000 h_1_1 <= 1000
 c454: y_1_(m1,_2,_1)_2_1 - w_1_(m1,_2,_1) + 1000 h_1_1 <= 1000
 c455: y_1_(m1,_2,_1)_1_1 + 2 w_1_(m1,_2,_1) + 1000 h_1_2 <= 1000
 c456: y_1_(m1,_2,_1)_2_1 - w_1_(m1,_2,_1) + 1000 h_1_2 <= 1000
 c457: y_1_(m1,_2,_1)_1_2 - w_1_(m1,_2,_1) + 1000 h_1_0 <= 1000
 c458: y_1_(m1,_2,_1)_2_2 + 2 w_1_(m1,_2,_1) + 1000 h_1_0 <= 1000
 c459: y_1_(m1,_2,_1)_1_2 - 2 w_1_(m1,_2,_1) + 1000 h_1_1 <= 1000
 c460: y_1_(m1,_2,_1)_2_2 + 1000 h_1_1 <= 1000
 c461: y_1_(m1,_2,_1)_1_2 - 2 w_1_(m1,_2,_1) + 1000 h_1_2 <= 1000
 c462: y_1_(m1,_2,_1)_2_2 - w_1_(m1,_2,_1) + 1000 h_1_2 <= 1000
 c463: y_2_(m1,_2,_1)_1_0 - w_2_(m1,_2,_1) + 1000 h_2_0 <= 1000
 c464: y_2_(m1,_2,_1)_2_0 - w_2_(m1,_2,_1) + 1000 h_2_0 <= 1000
 c465: y_2_(m1,_2,_1)_1_0 - w_2_(m1,_2,_1) + 1000 h_2_1 <= 1000
 c466: y_2_(m1,_2,_1)_2_0 + 1000 h_2_1 <= 1000
 c467: y_2_(m1,_2,_1)_1_0 + 2 w_2_(m1,_2,_1) + 1000 h_2_2 <= 1000
 c468: y_2_(m1,_2,_1)_2_0 - w_2_(m1,_2,_1) + 1000 h_2_2 <= 1000
 c469: y_2_(m1,_2,_1)_1_1 + 1000 h_2_0 <= 1000
 c470: y_2_(m1,_2,_1)_2_1 + 2 w_2_(m1,_2,_1) + 1000 h_2_0 <= 1000
 c471: y_2_(m1,_2,_1)_1_1 - w_2_(m1,_2,_1) + 1000 h_2_1 <= 1000
 c472: y_2_(m1,_2,_1)_2_1 - w_2_(m1,_2,_1) + 1000 h_2_1 <= 1000
 c473: y_2_(m1,_2,_1)_1_1 + 2 w_2_(m1,_2,_1) + 1000 h_2_2 <= 1000
 c474: y_2_(m1,_2,_1)_2_1 - w_2_(m1,_2,_1) + 1000 h_2_2 <= 1000
 c475: y_2_(m1,_2,_1)_1_2 - w_2_(m1,_2,_1) + 1000 h_2_0 <= 1000
 c476: y_2_(m1,_2,_1)_2_2 + 2 w_2_(m1,_2,_1) + 1000 h_2_0 <= 1000
 c477: y_2_(m1,_2,_1)_1_2 - 2 w_2_(m1,_2,_1) + 1000 h_2_1 <= 1000
 c478: y_2_(m1,_2,_1)_2_2 + 1000 h_2_1 <= 1000
 c479: y_2_(m1,_2,_1)_1_2 - 2 w_2_(m1,_2,_1) + 1000 h_2_2 <= 1000
 c480: y_2_(m1,_2,_1)_2_2 - w_2_(m1,_2,_1) + 1000 h_2_2 <= 1000
 c481: w_1_(1,_2,_m1) + w_1_(1,_m1,_2) + w_1_(2,_1,_m1) + w_1_(2,_m1,_1)
       + w_1_(m1,_1,_2) + w_1_(m1,_2,_1) = 1
 c482: w_2_(1,_2,_m1) + w_2_(1,_m1,_2) + w_2_(2,_1,_m1) + w_2_(2,_m1,_1)
       + w_2_(m1,_1,_2) + w_2_(m1,_2,_1) = 1
 c483: v_1 + 3 w_1_(1,_2,_m1) + 3 w_1_(1,_m1,_2) + 3 w_1_(2,_1,_m1)
       + 3 w_1_(2,_m1,_1) >= 1
 c484: v_2 + 3 w_2_(1,_2,_m1) + 3 w_2_(1,_m1,_2) + 3 w_2_(2,_1,_m1)
       + 3 w_2_(2,_m1,_1) >= 2
 c485: v_1 + 9 w_1_(1,_2,_m1) + 9 w_1_(2,_1,_m1) + 9 w_1_(m1,_1,_2)
       + 9 w_1_(m1,_2,_1) >= 7
 c486: v_2 + 2 w_2_(1,_2,_m1) + 2 w_2_(2,_1,_m1) + 2 w_2_(m1,_1,_2)
       + 2 w_2_(m1,_2,_1) >= 1
 c487: v_1 + 5 w_1_(1,_m1,_2) + 5 w_1_(2,_m1,_1) + 5 w_1_(m1,_1,_2)
       + 5 w_1_(m1,_2,_1) >= 3
 c488: v_2 + 7 w_2_(1,_m1,_2) + 7 w_2_(2,_m1,_1) + 7 w_2_(m1,_1,_2)
       + 7 w_2_(m1,_2,_1) >= 5
 c489: v_1 + 3 w_1_(1,_2,_m1) + 3 w_1_(1,_m1,_2) + 3 w_1_(2,_1,_m1)
       + 3 w_1_(2,_m1,_1) + 1000 h_1_0 <= 1001
 c490: v_2 + 3 w_2_(1,_2,_m1) + 3 w_2_(1,_m1,_2) + 3 w_2_(2,_1,_m1)
       + 3 w_2_(2,_m1,_1) + 1000 h_2_0 <= 1002
 c491: v_1 + 9 w_1_(1,_2,_m1) + 9 w_1_(2,_1,_m1) + 9 w_1_(m1,_1,_2)
       + 9 w_1_(m1,_2,_1) + 1000 h_1_1 <= 1007
 c492: v_2 + 2 w_2_(1,_2,_m1) + 2 w_2_(2,_1,_m1) + 2 w_2_(m1,_1,_2)
       + 2 w_2_(m1,_2,_1) + 1000 h_2_1 <= 1001
 c493: v_1 + 5 w_1_(1,_m1,_2) + 5 w_1_(2,_m1,_1) + 5 w_1_(m1,_1,_2)
       + 5 w_1_(m1,_2,_1) + 1000 h_1_2 <= 1003
 c494: v_2 + 7 w_2_(1,_m1,_2) + 7 w_2_(2,_m1,_1) + 7 w_2_(m1,_1,_2)
       + 7 w_2_(m1,_2,_1) + 1000 h_2_2 <= 1005
 c495: h_1_0 + h_1_1 + h_1_2 = 1
 c496: h_2_0 + h_2_1 + h_2_2 = 1

Bounds
       z_1_(1,_2,_m1) Free
       z_1_(1,_m1,_2) Free
       z_1_(2,_1,_m1) Free
       z_1_(2,_m1,_1) Free
       z_1_(m1,_1,_2) Free
       z_1_(m1,_2,_1) Free
       z_2_(1,_2,_m1) Free
       z_2_(1,_m1,_2) Free
       z_2_(2,_1,_m1) Free
       z_2_(2,_m1,_1) Free
       z_2_(m1,_1,_2) Free
       z_2_(m1,_2,_1) Free
       w_1_(1,_2,_m1) <= 1
       w_1_(1,_m1,_2) <= 1
       w_1_(2,_1,_m1) <= 1
       w_1_(2,_m1,_1) <= 1
       w_1_(m1,_1,_2) <= 1
       w_1_(m1,_2,_1) <= 1
       w_2_(1,_2,_m1) <= 1
       w_2_(1,_m1,_2) <= 1
       w_2_(2,_1,_m1) <= 1
       w_2_(2,_m1,_1) <= 1
       w_2_(m1,_1,_2) <= 1
       w_2_(m1,_2,_1) <= 1
       y_1_(1,_2,_m1)_1_0 Free
       y_1_(1,_2,_m1)_1_1 Free
       y_1_(1,_2,_m1)_1_2 Free
       y_1_(1,_2,_m1)_2_0 Free
       y_1_(1,_2,_m1)_2_1 Free
       y_1_(1,_2,_m1)_2_2 Free
       y_1_(1,_m1,_2)_1_0 Free
       y_1_(1,_m1,_2)_1_1 Free
       y_1_(1,_m1,_2)_1_2 Free
       y_1_(1,_m1,_2)_2_0 Free
       y_1_(1,_m1,_2)_2_1 Free
       y_1_(1,_m1,_2)_2_2 Free
       y_1_(2,_1,_m1)_1_0 Free
       y_1_(2,_1,_m1)_1_1 Free
       y_1_(2,_1,_m1)_1_2 Free
       y_1_(2,_1,_m1)_2_0 Free
       y_1_(2,_1,_m1)_2_1 Free
       y_1_(2,_1,_m1)_2_2 Free
       y_1_(2,_m1,_1)_1_0 Free
       y_1_(2,_m1,_1)_1_1 Free
       y_1_(2,_m1,_1)_1_2 Free
       y_1_(2,_m1,_1)_2_0 Free
       y_1_(2,_m1,_1)_2_1 Free
       y_1_(2,_m1,_1)_2_2 Free
       y_1_(m1,_1,_2)_1_0 Free
       y_1_(m1,_1,_2)_1_1 Free
       y_1_(m1,_1,_2)_1_2 Free
       y_1_(m1,_1,_2)_2_0 Free
       y_1_(m1,_1,_2)_2_1 Free
       y_1_(m1,_1,_2)_2_2 Free
       y_1_(m1,_2,_1)_1_0 Free
       y_1_(m1,_2,_1)_1_1 Free
       y_1_(m1,_2,_1)_1_2 Free
       y_1_(m1,_2,_1)_2_0 Free
       y_1_(m1,_2,_1)_2_1 Free
       y_1_(m1,_2,_1)_2_2 Free
       y_2_(1,_2,_m1)_1_0 Free
       y_2_(1,_2,_m1)_1_1 Free
       y_2_(1,_2,_m1)_1_2 Free
       y_2_(1,_2,_m1)_2_0 Free
       y_2_(1,_2,_m1)_2_1 Free
       y_2_(1,_2,_m1)_2_2 Free
       y_2_(1,_m1,_2)_1_0 Free
       y_2_(1,_m1,_2)_1_1 Free
       y_2_(1,_m1,_2)_1_2 Free
       y_2_(1,_m1,_2)_2_0 Free
       y_2_(1,_m1,_2)_2_1 Free
       y_2_(1,_m1,_2)_2_2 Free
       y_2_(2,_1,_m1)_1_0 Free
       y_2_(2,_1,_m1)_1_1 Free
       y_2_(2,_1,_m1)_1_2 Free
       y_2_(2,_1,_m1)_2_0 Free
       y_2_(2,_1,_m1)_2_1 Free
       y_2_(2,_1,_m1)_2_2 Free
       y_2_(2,_m1,_1)_1_0 Free
       y_2_(2,_m1,_1)_1_1 Free
       y_2_(2,_m1,_1)_1_2 Free
       y_2_(2,_m1,_1)_2_0 Free
       y_2_(2,_m1,_1)_2_1 Free
       y_2_(2,_m1,_1)_2_2 Free
       y_2_(m1,_1,_2)_1_0 Free
       y_2_(m1,_1,_2)_1_1 Free
       y_2_(m1,_1,_2)_1_2 Free
       y_2_(m1,_1,_2)_2_0 Free
       y_2_(m1,_1,_2)_2_1 Free
       y_2_(m1,_1,_2)_2_2 Free
       y_2_(m1,_2,_1)_1_0 Free
       y_2_(m1,_2,_1)_1_1 Free
       y_2_(m1,_2,_1)_1_2 Free
       y_2_(m1,_2,_1)_2_0 Free
       y_2_(m1,_2,_1)_2_1 Free
       y_2_(m1,_2,_1)_2_2 Free
 0 <= h_1_0 <= 1
 0 <= h_1_1 <= 1
 0 <= h_1_2 <= 1
 0 <= h_2_0 <= 1
 0 <= h_2_1 <= 1
 0 <= h_2_2 <= 1
       v_1 Free
       v_2 Free

Binaries
 h_1_0 h_1_1 h_1_2 h_2_0 h_2_1 h_2_2
End
